300
750
524
521
519
517
517
515
515
514
513
513
513
510
508
507
506
505
500
500
499
497
496
495
495
494
491
491
486
485
485
484
481
481
477
471
470
470
468
467
465
463
463
460
459
459
459
458
457
452
451
448
447
447
441
437
437
434
429
428
426
426
422
421
420
418
417
417
415
412
411
410
410
410
409
408
404
403
401
397
396
395
395
393
392
389
388
386
383
383
381
379
379
378
377
377
376
372
370
368
366
365
365
364
362
362
358
358
357
355
351
348
345
343
341
341
340
340
338
337
336
335
335
334
328
327
327
327
326
326
326
323
323
320
319
319
318
318
313
313
312
310
308
308
307
306
305
301
295
294
289
288
288
288
287
286
286
284
284
284
282
280
273
273
273
271
271
271
268
267
267
256
256
254
251
250
247
245
244
244
241
238
234
233
231
230
228
227
224
222
222
219
213
210
208
208
206
206
206
204
204
203
202
201
201
199
199
197
197
196
194
192
189
187
187
187
186
184
184
182
178
178
177
177
175
175
175
175
174
173
173
172
171
167
167
165
165
164
164
161
159
158
158
157
157
148
147
147
146
146
143
143
143
141
140
139
138
137
136
134
132
130
129
129
123
123
121
117
117
116
116
111
108
108
105
105
104
103
99
99
98
98
97
97
95
94
92
90
89
86
85
85
85
83
82
81
81
80
80
79
78
76
